Clp0006I 0  Obj 0 Primal inf 1999.9998 (2000) Dual inf 27497212 (1000000)
Clp0006I 200  Obj -22066164 Primal inf 1608415 (2000)
Clp0006I 400  Obj -16575929 Primal inf 1214404 (2000)
Clp0006I 600  Obj -11094182 Primal inf 821184 (2000)
Clp0006I 800  Obj -5615273 Primal inf 432935 (2000)
Clp0006I 1000  Obj -125193 Primal inf 67023 (2000)
Clp0006I 1200  Obj -54598 Primal inf 61244 (1998)
Clp0006I 1305  Obj -54598 Primal inf 64201 (1999)
Clp0006I 1407  Obj -54598 Primal inf 61668 (1999)
Clp0006I 1540  Obj -54330 Primal inf 73606 (1997)
Clp0006I 1666  Obj -54330 Primal inf 154445 (1997)
Clp0006I 1785  Obj -54330 Primal inf 217111 (1997)
Clp0006I 1905  Obj -54330 Primal inf 219154 (1997)
Clp0006I 2050  Obj -54330 Primal inf 305134 (1993)
Clp0006I 2189  Obj -54330 Primal inf 278156 (1993)
Clp0006I 2326  Obj -54330 Primal inf 181843 (1990)
Clp0006I 2478  Obj -54330 Primal inf 245448 (1991)
Clp0006I 2631  Obj -54330 Primal inf 233849 (1989)
Clp0006I 2783  Obj -54330 Primal inf 308708 (1989)
Clp0006I 2926  Obj -54330 Primal inf 239217 (1990)
Clp0006I 3085  Obj -54330 Primal inf 278208 (1992)
Clp0006I 3220  Obj -54330 Primal inf 303173 (1990)
Clp0006I 3363  Obj -54330 Primal inf 213353 (1988)
Clp0006I 3505  Obj -54330 Primal inf 229028 (1988)
Clp0006I 3662  Obj -54330 Primal inf 212573 (1992)
Clp0006I 3818  Obj -54330 Primal inf 208040 (1989)
Clp0006I 3977  Obj -54330 Primal inf 251677 (1989)
Clp0006I 4122  Obj -54330 Primal inf 362956 (1993)
Clp0006I 4262  Obj -54330 Primal inf 250267 (1990)
Clp0006I 4401  Obj -54330 Primal inf 184483 (1990)
Clp0006I 4559  Obj -54330 Primal inf 221506 (1990)
Clp0006I 4728  Obj -54330 Primal inf 286333 (1988)
Clp0006I 4867  Obj -54330 Primal inf 232563 (1990)
Clp0006I 5045  Obj -54330 Primal inf 241887 (1987)
Clp0006I 5188  Obj -54330 Primal inf 258508 (1985)
Clp0006I 5335  Obj -54330 Primal inf 259817 (1984)
Clp0006I 5470  Obj -54330 Primal inf 179806 (1982)
Clp0006I 5621  Obj -54330 Primal inf 172534 (1980)
Clp0006I 5785  Obj -54330 Primal inf 200678 (1982)
Clp0006I 5942  Obj -54330 Primal inf 285025 (1983)
Clp0006I 6113  Obj -54330 Primal inf 331820 (1985)
Clp0006I 6260  Obj -54330 Primal inf 369707 (1980)
Clp0006I 6395  Obj -54330 Primal inf 225725 (1983)
Clp0006I 6561  Obj -54330 Primal inf 241992 (1985)
Clp0006I 6709  Obj -54330 Primal inf 234684 (1984)
Clp0006I 6854  Obj -54330 Primal inf 166704 (1981)
Clp0006I 7004  Obj -54330 Primal inf 235498 (1984)
Clp0006I 7145  Obj -54330 Primal inf 233438 (1985)
Clp0006I 7297  Obj -54330 Primal inf 177901 (1986)

TIME LIMIT REACHED!
real 1m24,053s user 1m23,413s sys 0m0,541s
